39263
[0, 567, 568, 569, 566, 565, 564, 563, 562, 561, 560, 559, 558, 556, 557, 555, 554, 553, 552, 551, 550, 549, 548, 547, 546, 545, 544, 543, 542, 540, 541, 539, 538, 537, 536, 535, 528, 529, 534, 533, 532, 531, 530, 527, 526, 525, 524, 523, 522, 521, 519, 520, 518, 517, 516, 515, 476, 513, 512, 506, 505, 507, 508, 509, 511, 510, 504, 503, 502, 501, 500, 499, 498, 497, 496, 492, 493, 494, 495, 490, 491, 489, 488, 487, 486, 485, 484, 483, 482, 481, 480, 479, 478, 477, 514, 475, 474, 473, 472, 471, 470, 469, 468, 467, 466, 465, 464, 463, 462, 461, 460, 459, 457, 458, 456, 455, 454, 453, 452, 451, 450, 449, 448, 447, 446, 445, 444, 443, 442, 441, 440, 434, 439, 436, 437, 438, 435, 433, 432, 431, 430, 429, 428, 427, 426, 425, 424, 423, 422, 421, 420, 419, 418, 417, 416, 415, 414, 413, 412, 411, 410, 409, 408, 407, 406, 405, 404, 403, 402, 401, 400, 399, 398, 397, 396, 395, 394, 393, 392, 391, 390, 389, 388, 387, 386, 385, 384, 383, 382, 381, 380, 378, 379, 377, 376, 375, 374, 373, 372, 371, 370, 369, 368, 367, 366, 365, 364, 363, 362, 361, 360, 359, 358, 357, 356, 355, 354, 353, 352, 351, 349, 350, 348, 347, 346, 345, 344, 343, 342, 340, 341, 339, 338, 337, 336, 335, 334, 333, 332, 331, 330, 329, 326, 328, 327, 325, 324, 323, 322, 321, 320, 319, 317, 318, 316, 315, 314, 313, 312, 311, 309, 310, 308, 307, 306, 305, 304, 303, 302, 301, 300, 299, 298, 297, 296, 295, 294, 293, 292, 291, 290, 289, 288, 287, 286, 285, 284, 283, 282, 281, 280, 279, 278, 277, 276, 275, 274, 273, 272, 271, 270, 269, 268, 267, 266, 265, 264, 263, 262, 261, 258, 259, 260, 257, 256, 254, 255, 253, 251, 252, 250, 249, 248, 200, 199, 198, 197, 196, 195, 194, 193, 192, 191, 190, 189, 188, 187, 186, 185, 184, 208, 207, 237, 206, 205, 204, 203, 202, 201, 247, 246, 245, 244, 243, 242, 241, 240, 239, 238, 236, 235, 234, 233, 231, 232, 230, 229, 228, 227, 226, 225, 224, 223, 222, 221, 220, 219, 218, 217, 216, 215, 164, 163, 162, 161, 160, 159, 158, 157, 156, 155, 154, 153, 166, 165, 212, 213, 214, 211, 210, 209, 183, 182, 181, 180, 179, 178, 177, 176, 175, 174, 173, 172, 171, 170, 169, 168, 167, 152, 151, 150, 149, 148, 147, 146, 145, 143, 144, 142, 141, 140, 139, 138, 137, 136, 135, 134, 133, 132, 131, 130, 129, 128, 127, 126, 125, 124, 123, 122, 121, 120, 119, 118, 117, 116, 115, 114, 113, 112, 111, 110, 109, 108, 107, 106, 104, 105, 103, 102, 101, 100, 99, 98, 97, 96, 95, 94, 93, 92, 91, 90, 89, 88, 87, 86, 85, 84, 83, 82, 81, 80, 79, 78, 77, 76, 75, 74, 73, 72, 71, 70, 69, 68, 67, 66, 65, 64, 63, 62, 61, 60, 59, 58, 57, 56, 55, 54, 53, 52, 51, 50, 49, 48, 47, 46, 45, 44, 43, 42, 41, 40, 39, 38, 37, 36, 35, 34, 33, 32, 31, 30, 29, 28, 27, 26, 25, 24, 23, 22, 21, 20, 18, 19, 17, 16, 15, 14, 13, 12, 11, 10, 9, 8, 7, 6, 5, 4, 3, 2, 1, 570, 571, 572, 573]
